x = 20;
y = 13;
c = 47;
n = 20;

p = [17  31  37  90  39  47  13  13  100  44  29  71  84  100  48  15  93  14  89  33];
w = [6  1  7  1  6  1  5  9  1  10  1  5  1  10  7  6  9  10  10  4];
s = [6  3  8  4  11  3  11  1  7  9  2  13  8  7  1  6  6  2  3  1];
